c Result of efficient AIG-to-CNF conversion using package CNF
p cnf 34 70
-2 3 10 0
-2 -3 -10 0
2 -3 10 0
2 3 -10 0
-3 -4 -9 0
-3 4 9 0
3 4 -9 0
3 -4 9 0
-4 -5 -8 0
-4 5 8 0
4 5 -8 0
4 -5 8 0
-5 -6 -7 0
-5 6 7 0
5 6 -7 0
5 -6 7 0
6 -19 -20 0
-6 19 0
-6 20 0
7 -21 -30 0
-7 21 0
-7 30 0
8 -22 -26 0
-8 22 0
-8 26 0
9 -20 -21 -26 -30 0
-9 30 0
-9 20 0
-9 26 0
-9 21 0
-10 -11 -16 0
-10 11 16 0
10 11 -16 0
10 -11 16 0
-11 -12 -15 0
-11 12 15 0
11 12 -15 0
11 -12 15 0
-12 -13 -14 0
-12 13 14 0
12 13 -14 0
12 -13 14 0
13 21 -33 0
13 19 -33 0
-13 33 0
-13 -19 -21 0
14 21 -22 -26 0
14 -21 22 -26 0
14 -21 26 30 0
-14 21 26 0
-14 21 22 0
-14 26 -30 0
-14 -21 -22 -26 0
15 19 20 -33 0
15 20 21 -33 0
15 19 21 -33 0
15 19 -20 -21 33 0
15 -19 -20 21 33 0
-15 20 33 0
-15 -19 -21 0
-15 -19 -20 -33 0
-15 19 21 33 0
-15 -20 -21 -33 0
16 20 -21 26 0
16 20 -21 30 0
-16 -20 0
-16 21 0
-16 -26 -30 0
-34 0
2 0

